objective value:                      1.0593370973003
x(0,5,2)                                            1 	(obj:0)
x(1,7,0)                                            1 	(obj:0)
x(2,9,1)                                            1 	(obj:0)
x(3,1,0)                                            1 	(obj:0)
x(4,0,2)                                            1 	(obj:0)
x(4,2,1)                                            1 	(obj:0)
x(5,14,2)                                           1 	(obj:0)
x(7,13,0)                                           1 	(obj:0)
x(9,14,1)                                           1 	(obj:0)
x(13,3,0)                                           1 	(obj:0)
x(14,4,1)                                           1 	(obj:0)
x(14,4,2)                                           1 	(obj:0)
xc(3,6)                                             1 	(obj:0)
xc(5,10)                                            1 	(obj:0)
xc(7,5)                                             1 	(obj:0)
u(0,1)                                1.0593370973003 	(obj:0)
u(0,2)                              0.347515814860699 	(obj:0)
u(1,0)                             0.0879195192816997 	(obj:0)
u(1,1)                                1.0593370973003 	(obj:0)
u(1,2)                                1.0593370973003 	(obj:0)
u(2,0)                                1.0593370973003 	(obj:0)
u(2,1)                              0.245614500609999 	(obj:0)
u(3,1)                                1.0593370973003 	(obj:0)
u(3,2)                                1.0593370973003 	(obj:0)
u(5,2)                              0.543408242658099 	(obj:0)
u(6,0)                                1.0593370973003 	(obj:0)
u(7,0)                              0.574842604025299 	(obj:0)
u(7,1)                                1.0593370973003 	(obj:0)
u(8,0)                                1.0593370973003 	(obj:0)
u(8,1)                                1.0593370973003 	(obj:0)
u(9,0)                                1.0593370973003 	(obj:0)
u(9,1)                              0.674384605931198 	(obj:0)
u(10,0)                               1.0593370973003 	(obj:0)
u(10,1)                               1.0593370973003 	(obj:0)
u(10,2)                               1.0593370973003 	(obj:0)
u(11,0)                               1.0593370973003 	(obj:0)
u(11,1)                               1.0593370973003 	(obj:0)
u(11,2)                               1.0593370973003 	(obj:0)
u(12,0)                               1.0593370973003 	(obj:0)
u(12,1)                               1.0593370973003 	(obj:0)
u(12,2)                               1.0593370973003 	(obj:0)
u(13,0)                               1.0593370973003 	(obj:0)
u(13,1)                               1.0593370973003 	(obj:0)
u(13,2)                               1.0593370973003 	(obj:0)
u(14,0)                               1.0593370973003 	(obj:0)
u(14,1)                               1.0593370973003 	(obj:0)
u(14,2)                               1.0593370973003 	(obj:0)
u(15,0)                               1.0593370973003 	(obj:0)
u(15,1)                               1.0593370973003 	(obj:0)
u(15,2)                               1.0593370973003 	(obj:0)
u(16,0)                               1.0593370973003 	(obj:0)
u(16,1)                               1.0593370973003 	(obj:0)
u(16,2)                               1.0593370973003 	(obj:0)
u(17,0)                               1.0593370973003 	(obj:0)
u(17,1)                               1.0593370973003 	(obj:0)
u(17,2)                               1.0593370973003 	(obj:0)
u(18,0)                               1.0593370973003 	(obj:0)
u(18,1)                               1.0593370973003 	(obj:0)
u(18,2)                               1.0593370973003 	(obj:0)
u(19,0)                               1.0593370973003 	(obj:0)
u(19,1)                               1.0593370973003 	(obj:0)
u(19,2)                               1.0593370973003 	(obj:0)
f(0,5,0)                                            1 	(obj:0)
f(1,7,1)                                            1 	(obj:0)
f(1,7,3)                                            1 	(obj:0)
f(2,9,0)                                            1 	(obj:0)
f(2,9,1)                                            1 	(obj:0)
f(2,9,2)                                            1 	(obj:0)
f(2,9,3)                                            1 	(obj:0)
f(2,9,4)                                            1 	(obj:0)
f(3,1,3)                                            1 	(obj:0)
f(4,2,0)                                            1 	(obj:0)
f(4,2,1)                                            1 	(obj:0)
f(4,2,3)                                            1 	(obj:0)
f(4,2,4)                                            1 	(obj:0)
f(5,14,0)                                           1 	(obj:0)
f(5,14,1)                                           1 	(obj:0)
f(5,14,3)                                           1 	(obj:0)
f(7,5,1)                                            1 	(obj:0)
f(7,5,3)                                            1 	(obj:0)
f(14,4,0)                                           1 	(obj:0)
f(14,4,1)                                           1 	(obj:0)
f(14,4,3)                                           1 	(obj:0)
z_r(0,)                               1.0593370973003 	(obj:0)
z_r(1,)                               1.0593370973003 	(obj:0)
z_r(2,)                               1.0593370973003 	(obj:0)
z                                     1.0593370973003 	(obj:1)
